
(set-logic ALL) 

(declare-datatype MyList ((Nil) (Cons (head Real) (tail MyList)) )) 
(declare-fun l0 () MyList) 
(declare-fun l1 () MyList) 
(declare-fun l2 () MyList) 
(declare-fun l3 () MyList) 
(declare-fun i0 () Real) 
(declare-fun i1 () Real) 
(assert (is-Nil l0) )
(assert (= l0 l0) )
(assert (not (= l1 Nil)) )
(assert (and (= l1 Nil) (is-Nil Nil) (is-Cons Nil) (= l2 Nil)) )
(assert (or (= l2 l0) (= l0 l2) (= l1 Nil)) )
(assert (and (= l0 Nil) (= l1 Nil) (= l0 Nil) (= l2 l2)) )
(assert (and (= l1 Nil) (= l1 Nil) (is-Cons Nil)) )
(assert (or (is-Cons Nil) (= l1 l0) (= l0 Nil) (= l3 l0)) )
(check-sat)
